#definition

# set
set V := C1 C2 C3 C4 C5 ; 	# customer set
set F := F6 F7 F8 F6_1 F6_2 F7_1 F7_2 F8_1 F8_2 ;#recharging & battery swapping station
set D0 :=N0;
set Dσ :=Nσ;


# param
param CV := 200;    		# ECV fixed cost(Topic Given)
param C := 1000;   		# ECV max load
param Q := 77.75; 		# ECV/BSV battery level
param h := 1;     		# ECV consumption

param CB := 267;    		# BSV fixed cost(Topic Given)
param Qplun := 5;       # BSV max load(battery)
param hplun := 1;     	# BSV consumption
param W := 155.50;		# BSV battery level

param Ct := 10;    		# travel cost
param Cr := 100;    		# recharging cost
param lamda := 0.00;	# battery swap time
param Cb ;  	    # battery swap cost(BSS/BSV)
param n :=5;	   		# number of customers
param g :=1.17 ;     	# the recharging rate of ECV 



# customer demend
param m :=
N0 0
C1 16
C2 10
C3 26
C4 20
C5 10
F6 0
F7 0
F8 0
F6_1 0
F6_2 0
F7_1 0
F7_2 0
F8_1 0
F8_2 0
Nσ 0;

param e :=
N0 0
C1 404
C2 410
C3 418
C4 201
C5 425
F6 0
F7 0
F8 0
F6_1 0
F6_2 0
F7_1 0
F7_2 0
F8_1 0
F8_2 0
Nσ 0;

param l :=
N0 960
C1 847
C2 823
C3 825
C4 670
C5 898
F6 960
F7 960
F8 960
F6_1 960
F6_2 960
F7_1 960
F7_2 960
F8_1 960
F8_2 960
Nσ 960;

param s :=
N0 0
C1 10
C2 10
C3 10
C4 10
C5 10
F6 0
F7 0
F8 0
F6_1 0
F6_2 0
F7_1 0
F7_2 0
F8_1 0
F8_2 0
Nσ 0;

param d : N0 C1 C2 C3 C4 C5 F6 F7 F8 F6_1 F6_2 F7_1 F7_2 F8_1 F8_2 Nσ :=
N0 0.0000 13.0384 40.6079 15.5242 30.8058 51.0784 0.0000 36.2353 42.0595 0.0000 0.0000 36.2353 36.2353 42.0595 42.0595 0.0000
C1 13.0384 0.0000 51.0000 22.0227 41.6293 46.5296 13.0384 47.7598 36.6742 13.0384 13.0384 47.7598 47.7598 36.6742 36.6742 13.0384
C2 40.6079 51.0000 0.0000 29.7321 9.8995 56.4624 40.6079 8.0000 53.3667 40.6079 40.6079 8.0000 8.0000 53.3667 53.3667 40.6079
C3 15.5242 22.0227 29.7321 0.0000 21.2132 40.0000 15.5242 28.0713 32.5576 15.5242 15.5242 28.0713 28.0713 32.5576 32.5576 15.5242
C4 30.8058 41.6293 9.8995 21.2132 0.0000 53.5350 30.8058 7.0711 48.8467 30.8058 30.8058 7.0711 7.0711 48.8467 48.8467 30.8058
C5 51.0784 46.5296 56.4624 40.0000 53.5350 0.0000 51.0784 60.0333 10.0000 51.0784 51.0784 60.0333 60.0333 10.0000 10.0000 51.0784
F6 0.0000 13.0384 40.6079 15.5242 30.8058 51.0784 0.0000 36.2353 42.0595 0.0000 0.0000 36.2353 36.2353 42.0595 42.0595 0.0000
F7 36.2353 47.7598 8.0000 28.0713 7.0711 60.0333 36.2353 0.0000 55.7136 36.2353 36.2353 0.0000 0.0000 55.7136 55.7136 36.2353
F8 42.0595 36.6742 53.3667 32.5576 48.8467 10.0000 42.0595 55.7136 0.0000 42.0595 42.0595 55.7136 55.7136 0.0000 0.0000 42.0595
F6_1 0.0000 13.0384 40.6079 15.5242 30.8058 51.0784 0.0000 36.2353 42.0595 0.0000 0.0000 36.2353 36.2353 42.0595 42.0595 0.0000
F6_2 0.0000 13.0384 40.6079 15.5242 30.8058 51.0784 0.0000 36.2353 42.0595 0.0000 0.0000 36.2353 36.2353 42.0595 42.0595 0.0000
F7_1 36.2353 47.7598 8.0000 28.0713 7.0711 60.0333 36.2353 0.0000 55.7136 36.2353 36.2353 0.0000 0.0000 55.7136 55.7136 36.2353
F7_2 36.2353 47.7598 8.0000 28.0713 7.0711 60.0333 36.2353 0.0000 55.7136 36.2353 36.2353 0.0000 0.0000 55.7136 55.7136 36.2353
F8_1 42.0595 36.6742 53.3667 32.5576 48.8467 10.0000 42.0595 55.7136 0.0000 42.0595 42.0595 55.7136 55.7136 0.0000 0.0000 42.0595
F8_2 42.0595 36.6742 53.3667 32.5576 48.8467 10.0000 42.0595 55.7136 0.0000 42.0595 42.0595 55.7136 55.7136 0.0000 0.0000 42.0595
Nσ 0.0000 13.0384 40.6079 15.5242 30.8058 51.0784 0.0000 36.2353 42.0595 0.0000 0.0000 36.2353 36.2353 42.0595 42.0595 0.0000
;

param t : N0 C1 C2 C3 C4 C5 F6 F7 F8 F6_1 F6_2 F7_1 F7_2 F8_1 F8_2 Nσ :=
N0 0.0000 13.0384 40.6079 15.5242 30.8058 51.0784 0.0000 36.2353 42.0595 0.0000 0.0000 36.2353 36.2353 42.0595 42.0595 0.0000
C1 13.0384 0.0000 51.0000 22.0227 41.6293 46.5296 13.0384 47.7598 36.6742 13.0384 13.0384 47.7598 47.7598 36.6742 36.6742 13.0384
C2 40.6079 51.0000 0.0000 29.7321 9.8995 56.4624 40.6079 8.0000 53.3667 40.6079 40.6079 8.0000 8.0000 53.3667 53.3667 40.6079
C3 15.5242 22.0227 29.7321 0.0000 21.2132 40.0000 15.5242 28.0713 32.5576 15.5242 15.5242 28.0713 28.0713 32.5576 32.5576 15.5242
C4 30.8058 41.6293 9.8995 21.2132 0.0000 53.5350 30.8058 7.0711 48.8467 30.8058 30.8058 7.0711 7.0711 48.8467 48.8467 30.8058
C5 51.0784 46.5296 56.4624 40.0000 53.5350 0.0000 51.0784 60.0333 10.0000 51.0784 51.0784 60.0333 60.0333 10.0000 10.0000 51.0784
F6 0.0000 13.0384 40.6079 15.5242 30.8058 51.0784 0.0000 36.2353 42.0595 0.0000 0.0000 36.2353 36.2353 42.0595 42.0595 0.0000
F7 36.2353 47.7598 8.0000 28.0713 7.0711 60.0333 36.2353 0.0000 55.7136 36.2353 36.2353 0.0000 0.0000 55.7136 55.7136 36.2353
F8 42.0595 36.6742 53.3667 32.5576 48.8467 10.0000 42.0595 55.7136 0.0000 42.0595 42.0595 55.7136 55.7136 0.0000 0.0000 42.0595
F6_1 0.0000 13.0384 40.6079 15.5242 30.8058 51.0784 0.0000 36.2353 42.0595 0.0000 0.0000 36.2353 36.2353 42.0595 42.0595 0.0000
F6_2 0.0000 13.0384 40.6079 15.5242 30.8058 51.0784 0.0000 36.2353 42.0595 0.0000 0.0000 36.2353 36.2353 42.0595 42.0595 0.0000
F7_1 36.2353 47.7598 8.0000 28.0713 7.0711 60.0333 36.2353 0.0000 55.7136 36.2353 36.2353 0.0000 0.0000 55.7136 55.7136 36.2353
F7_2 36.2353 47.7598 8.0000 28.0713 7.0711 60.0333 36.2353 0.0000 55.7136 36.2353 36.2353 0.0000 0.0000 55.7136 55.7136 36.2353
F8_1 42.0595 36.6742 53.3667 32.5576 48.8467 10.0000 42.0595 55.7136 0.0000 42.0595 42.0595 55.7136 55.7136 0.0000 0.0000 42.0595
F8_2 42.0595 36.6742 53.3667 32.5576 48.8467 10.0000 42.0595 55.7136 0.0000 42.0595 42.0595 55.7136 55.7136 0.0000 0.0000 42.0595
Nσ 0.0000 13.0384 40.6079 15.5242 30.8058 51.0784 0.0000 36.2353 42.0595 0.0000 0.0000 36.2353 36.2353 42.0595 42.0595 0.0000
;